NAME: Ac2PIM1 14:0_14:0
PRECURSORMZ: 915.50823
PRECURSORTYPE: [M-H]-
SMILES: OCC1OC(OC2C(O)C(O)C(O)C(O)C2OP(O)(=O)OCC%10C%11)C(O)C(O)C1O.CCCCCCCCCCCCCC(=O)O%10.CCCCCCCCCCCCCC(=O)O%11
INCHIKEY: XTBDUJRCFSIXJA-UHFFFAOYSA-N
FORMULA: C43H81O18P
RETENTIONTIME: 7.66
CCS: 290.09
IONMODE: Negative
COMPOUNDCLASS: Ac2PIM1
Comment: theoretical MS2 created from the information of SCIEX 5600 and 6600 with 45CE +-15CES
Num Peaks: 6
227.201	800
363.1938	800
591.4026	600
687.2994	1998
753.4554	200
915.5082	500

NAME: DGDG O-19:0_25:0
PRECURSORMZ: 1105.83471
PRECURSORTYPE: [M+CH3COO]-
SMILES: CCCCCCCCCCCCCCCCCCCCCCCCC(=O)OC(COCCCCCCCCCCCCCCCCCCC)COC1OC(COC2OC(CO)C(O)C(O)C2O)C(O)C(O)C1O
INCHIKEY: SAZXKSKVAOWMSD-UHFFFAOYNA-N
FORMULA: C59H114O14
RETENTIONTIME: 13.99
CCS: 333.21
IONMODE: Negative
COMPOUNDCLASS: EtherDGDG
Comment: theoretical MS2 created from the information of SCIEX 5600 and 6600 with 45CE +-15CES
Num Peaks: 5
381.373	600
663.4327	300
681.4433	300
1045.814	500
1105.835	100