NAME: Oxytetracycline
PRECURSORMZ: 459.1408996582031
PRECURSORTYPE: [M-H]-
FORMULA: C22H24N2O9
Ontology: Tetracyclines
INCHIKEY: OWFJMIVZYSDULZ-PXOLEDIWSA-N
SMILES: O=C1C(C(=N)O)=C(O)C2(O)C(=O)C3=C(O)C=4C(O)=CC=CC4C(O)(C)C3C(O)C2C1N(C)C
RETENTIONTIME: 
CCS: 208.1846569
IONMODE: Negative
COLLISIONENERGY: 35HCD
Comment: DB#=VF-NPL-QEHF000001; origin=Vaniya/Fiehn Natural Products Library
Num Peaks: 28
111.00764	70
125.02334	60
135.0441	80
142.01353	200
161.02351	70
163.03911	130
168.02954	60
173.06003	110
181.03748	140
189.05511	60
201.05527	170
203.07095	90
227.07108	80
229.05054	50
245.04555	120
253.05075	130
255.06647	60
267.0665	170
271.06149	110
289.0719	160
297.07718	50
309.07742	60
311.05652	80
312.12448	100
349.03555	60
353.09088	80
374.12479	1000
375.12827	210