Name: Propane, 2-[(1,1-dimethylethyl)sulfonyl]-2-methyl-
InChIKey: SPJQDMKTFSPPLO-UHFFFAOYSA-N
Synon: Di-tert-Butyl sulfone
Synon: tert-Butyl Sulfone
Synon: Di-tert-butyl sulphone
Synon: 2-((1,1-Dimethylethyl)-sulphonyl)-2-methylpropane
Synon: 2-(tert-Butylsulfonyl)-2-methylpropane  #
Formula: C8H18O2S
MW: 178
ExactMass: 178.102751
CAS#: 1886-75-5;  NIST#: 7302
DB#: 23257
Num Peaks: 41
28 69; 29 250; 30 7; 31 2; 32 71; 
37 3; 38 6; 39 85; 40 15; 41 313; 
42 17; 43 14; 44 1; 45 3; 47 2; 
48 6; 49 1; 50 3; 51 3; 52 1; 
53 6; 54 2; 55 22; 56 91; 57 999; 
58 50; 59 8; 60 1; 64 7; 65 2; 
90 1; 91 1; 105 4; 106 1; 107 1; 
113 4; 114 1; 120 1; 121 17; 122 1; 
123 1; 

